certificates/rado_a10_c-2_N157.cnf
c Rad2 upper bound instance: x1 + 10*x2 - x3 = -2, interval [1,157]
p cnf 157 2250
1 13 0
-1 -13 0
1 2 23 0
-1 -2 -23 0
1 3 33 0
-1 -3 -33 0
1 4 43 0
-1 -4 -43 0
1 5 53 0
-1 -5 -53 0
1 6 63 0
-1 -6 -63 0
1 7 73 0
-1 -7 -73 0
1 8 83 0
-1 -8 -83 0
1 9 93 0
-1 -9 -93 0
1 10 103 0
-1 -10 -103 0
1 11 113 0
-1 -11 -113 0
1 12 123 0
-1 -12 -123 0
1 13 133 0
-1 -13 -133 0
1 14 143 0
-1 -14 -143 0
1 15 153 0
-1 -15 -153 0
1 2 14 0
-1 -2 -14 0
2 24 0
-2 -24 0
2 3 34 0
-2 -3 -34 0
2 4 44 0
-2 -4 -44 0
2 5 54 0
-2 -5 -54 0
2 6 64 0
-2 -6 -64 0
2 7 74 0
-2 -7 -74 0
2 8 84 0
-2 -8 -84 0
2 9 94 0
-2 -9 -94 0
2 10 104 0
-2 -10 -104 0
2 11 114 0
-2 -11 -114 0
2 12 124 0
-2 -12 -124 0
2 13 134 0
-2 -13 -134 0
2 14 144 0
-2 -14 -144 0
2 15 154 0
-2 -15 -154 0
1 3 15 0
-1 -3 -15 0
2 3 25 0
-2 -3 -25 0
3 35 0
-3 -35 0
3 4 45 0
-3 -4 -45 0
3 5 55 0
-3 -5 -55 0
3 6 65 0
-3 -6 -65 0
3 7 75 0
-3 -7 -75 0
3 8 85 0
-3 -8 -85 0
3 9 95 0
-3 -9 -95 0
3 10 105 0
-3 -10 -105 0
3 11 115 0
-3 -11 -115 0
3 12 125 0
-3 -12 -125 0
3 13 135 0
-3 -13 -135 0
3 14 145 0
-3 -14 -145 0
3 15 155 0
-3 -15 -155 0
1 4 16 0
-1 -4 -16 0
2 4 26 0
-2 -4 -26 0
3 4 36 0
-3 -4 -36 0
4 46 0
-4 -46 0
4 5 56 0
-4 -5 -56 0
4 6 66 0
-4 -6 -66 0
4 7 76 0
-4 -7 -76 0
4 8 86 0
-4 -8 -86 0
4 9 96 0
-4 -9 -96 0
4 10 106 0
-4 -10 -106 0
4 11 116 0
-4 -11 -116 0
4 12 126 0
-4 -12 -126 0
4 13 136 0
-4 -13 -136 0
4 14 146 0
-4 -14 -146 0
4 15 156 0
-4 -15 -156 0
1 5 17 0
-1 -5 -17 0
2 5 27 0
-2 -5 -27 0
3 5 37 0
-3 -5 -37 0
4 5 47 0
-4 -5 -47 0
5 57 0
-5 -57 0
5 6 67 0
-5 -6 -67 0
5 7 77 0
-5 -7 -77 0
5 8 87 0
-5 -8 -87 0
5 9 97 0
-5 -9 -97 0
5 10 107 0
-5 -10 -107 0
5 11 117 0
-5 -11 -117 0
5 12 127 0
-5 -12 -127 0
5 13 137 0
-5 -13 -137 0
5 14 147 0
-5 -14 -147 0
5 15 157 0
-5 -15 -157 0
1 6 18 0
-1 -6 -18 0
2 6 28 0
-2 -6 -28 0
3 6 38 0
-3 -6 -38 0
4 6 48 0
-4 -6 -48 0
5 6 58 0
-5 -6 -58 0
6 68 0
-6 -68 0
6 7 78 0
-6 -7 -78 0
6 8 88 0
-6 -8 -88 0
6 9 98 0
-6 -9 -98 0
6 10 108 0
-6 -10 -108 0
6 11 118 0
-6 -11 -118 0
6 12 128 0
-6 -12 -128 0
6 13 138 0
-6 -13 -138 0
6 14 148 0
-6 -14 -148 0
1 7 19 0
-1 -7 -19 0
2 7 29 0
-2 -7 -29 0
3 7 39 0
-3 -7 -39 0
4 7 49 0
-4 -7 -49 0
5 7 59 0
-5 -7 -59 0
6 7 69 0
-6 -7 -69 0
7 79 0
-7 -79 0
7 8 89 0
-7 -8 -89 0
7 9 99 0
-7 -9 -99 0
7 10 109 0
-7 -10 -109 0
7 11 119 0
-7 -11 -119 0
7 12 129 0
-7 -12 -129 0
7 13 139 0
-7 -13 -139 0
7 14 149 0
-7 -14 -149 0
1 8 20 0
-1 -8 -20 0
2 8 30 0
-2 -8 -30 0
3 8 40 0
-3 -8 -40 0
4 8 50 0
-4 -8 -50 0
5 8 60 0
-5 -8 -60 0
6 8 70 0
-6 -8 -70 0
7 8 80 0
-7 -8 -80 0
8 90 0
-8 -90 0
8 9 100 0
-8 -9 -100 0
8 10 110 0
-8 -10 -110 0
8 11 120 0
-8 -11 -120 0
8 12 130 0
-8 -12 -130 0
8 13 140 0
-8 -13 -140 0
8 14 150 0
-8 -14 -150 0
1 9 21 0
-1 -9 -21 0
2 9 31 0
-2 -9 -31 0
3 9 41 0
-3 -9 -41 0
4 9 51 0
-4 -9 -51 0
5 9 61 0
-5 -9 -61 0
6 9 71 0
-6 -9 -71 0
7 9 81 0
-7 -9 -81 0
8 9 91 0
-8 -9 -91 0
9 101 0
-9 -101 0
9 10 111 0
-9 -10 -111 0
9 11 121 0
-9 -11 -121 0
9 12 131 0
-9 -12 -131 0
9 13 141 0
-9 -13 -141 0
9 14 151 0
-9 -14 -151 0
1 10 22 0
-1 -10 -22 0
2 10 32 0
-2 -10 -32 0
3 10 42 0
-3 -10 -42 0
4 10 52 0
-4 -10 -52 0
5 10 62 0
-5 -10 -62 0
6 10 72 0
-6 -10 -72 0
7 10 82 0
-7 -10 -82 0
8 10 92 0
-8 -10 -92 0
9 10 102 0
-9 -10 -102 0
10 112 0
-10 -112 0
10 11 122 0
-10 -11 -122 0
10 12 132 0
-10 -12 -132 0
10 13 142 0
-10 -13 -142 0
10 14 152 0
-10 -14 -152 0
1 11 23 0
-1 -11 -23 0
2 11 33 0
-2 -11 -33 0
3 11 43 0
-3 -11 -43 0
4 11 53 0
-4 -11 -53 0
5 11 63 0
-5 -11 -63 0
6 11 73 0
-6 -11 -73 0
7 11 83 0
-7 -11 -83 0
8 11 93 0
-8 -11 -93 0
9 11 103 0
-9 -11 -103 0
10 11 113 0
-10 -11 -113 0
11 123 0
-11 -123 0
11 12 133 0
-11 -12 -133 0
11 13 143 0
-11 -13 -143 0
11 14 153 0
-11 -14 -153 0
1 12 24 0
-1 -12 -24 0
2 12 34 0
-2 -12 -34 0
3 12 44 0
-3 -12 -44 0
4 12 54 0
-4 -12 -54 0
5 12 64 0
-5 -12 -64 0
6 12 74 0
-6 -12 -74 0
7 12 84 0
-7 -12 -84 0
8 12 94 0
-8 -12 -94 0
9 12 104 0
-9 -12 -104 0
10 12 114 0
-10 -12 -114 0
11 12 124 0
-11 -12 -124 0
12 134 0
-12 -134 0
12 13 144 0
-12 -13 -144 0
12 14 154 0
-12 -14 -154 0
1 13 25 0
-1 -13 -25 0
2 13 35 0
-2 -13 -35 0
3 13 45 0
-3 -13 -45 0
4 13 55 0
-4 -13 -55 0
5 13 65 0
-5 -13 -65 0
6 13 75 0
-6 -13 -75 0
7 13 85 0
-7 -13 -85 0
8 13 95 0
-8 -13 -95 0
9 13 105 0
-9 -13 -105 0
10 13 115 0
-10 -13 -115 0
11 13 125 0
-11 -13 -125 0
12 13 135 0
-12 -13 -135 0
13 145 0
-13 -145 0
13 14 155 0
-13 -14 -155 0
1 14 26 0
-1 -14 -26 0
2 14 36 0
-2 -14 -36 0
3 14 46 0
-3 -14 -46 0
4 14 56 0
-4 -14 -56 0
5 14 66 0
-5 -14 -66 0
6 14 76 0
-6 -14 -76 0
7 14 86 0
-7 -14 -86 0
8 14 96 0
-8 -14 -96 0
9 14 106 0
-9 -14 -106 0
10 14 116 0
-10 -14 -116 0
11 14 126 0
-11 -14 -126 0
12 14 136 0
-12 -14 -136 0
13 14 146 0
-13 -14 -146 0
14 156 0
-14 -156 0
1 15 27 0
-1 -15 -27 0
2 15 37 0
-2 -15 -37 0
3 15 47 0
-3 -15 -47 0
4 15 57 0
-4 -15 -57 0
5 15 67 0
-5 -15 -67 0
6 15 77 0
-6 -15 -77 0
7 15 87 0
-7 -15 -87 0
8 15 97 0
-8 -15 -97 0
9 15 107 0
-9 -15 -107 0
10 15 117 0
-10 -15 -117 0
11 15 127 0
-11 -15 -127 0
12 15 137 0
-12 -15 -137 0
13 15 147 0
-13 -15 -147 0
14 15 157 0
-14 -15 -157 0
1 16 28 0
-1 -16 -28 0
2 16 38 0
-2 -16 -38 0
3 16 48 0
-3 -16 -48 0
4 16 58 0
-4 -16 -58 0
5 16 68 0
-5 -16 -68 0
6 16 78 0
-6 -16 -78 0
7 16 88 0
-7 -16 -88 0
8 16 98 0
-8 -16 -98 0
9 16 108 0
-9 -16 -108 0
10 16 118 0
-10 -16 -118 0
11 16 128 0
-11 -16 -128 0
12 16 138 0
-12 -16 -138 0
13 16 148 0
-13 -16 -148 0
1 17 29 0
-1 -17 -29 0
2 17 39 0
-2 -17 -39 0
3 17 49 0
-3 -17 -49 0
4 17 59 0
-4 -17 -59 0
5 17 69 0
-5 -17 -69 0
6 17 79 0
-6 -17 -79 0
7 17 89 0
-7 -17 -89 0
8 17 99 0
-8 -17 -99 0
9 17 109 0
-9 -17 -109 0
10 17 119 0
-10 -17 -119 0
11 17 129 0
-11 -17 -129 0
12 17 139 0
-12 -17 -139 0
13 17 149 0
-13 -17 -149 0
1 18 30 0
-1 -18 -30 0
2 18 40 0
-2 -18 -40 0
3 18 50 0
-3 -18 -50 0
4 18 60 0
-4 -18 -60 0
5 18 70 0
-5 -18 -70 0
6 18 80 0
-6 -18 -80 0
7 18 90 0
-7 -18 -90 0
8 18 100 0
-8 -18 -100 0
9 18 110 0
-9 -18 -110 0
10 18 120 0
-10 -18 -120 0
11 18 130 0
-11 -18 -130 0
12 18 140 0
-12 -18 -140 0
13 18 150 0
-13 -18 -150 0
1 19 31 0
-1 -19 -31 0
2 19 41 0
-2 -19 -41 0
3 19 51 0
-3 -19 -51 0
4 19 61 0
-4 -19 -61 0
5 19 71 0
-5 -19 -71 0
6 19 81 0
-6 -19 -81 0
7 19 91 0
-7 -19 -91 0
8 19 101 0
-8 -19 -101 0
9 19 111 0
-9 -19 -111 0
10 19 121 0
-10 -19 -121 0
11 19 131 0
-11 -19 -131 0
12 19 141 0
-12 -19 -141 0
13 19 151 0
-13 -19 -151 0
1 20 32 0
-1 -20 -32 0
2 20 42 0
-2 -20 -42 0
3 20 52 0
-3 -20 -52 0
4 20 62 0
-4 -20 -62 0
5 20 72 0
-5 -20 -72 0
6 20 82 0
-6 -20 -82 0
7 20 92 0
-7 -20 -92 0
8 20 102 0
-8 -20 -102 0
9 20 112 0
-9 -20 -112 0
10 20 122 0
-10 -20 -122 0
11 20 132 0
-11 -20 -132 0
12 20 142 0
-12 -20 -142 0
13 20 152 0
-13 -20 -152 0
1 21 33 0
-1 -21 -33 0
2 21 43 0
-2 -21 -43 0
3 21 53 0
-3 -21 -53 0
4 21 63 0
-4 -21 -63 0
5 21 73 0
-5 -21 -73 0
6 21 83 0
-6 -21 -83 0
7 21 93 0
-7 -21 -93 0
8 21 103 0
-8 -21 -103 0
9 21 113 0
-9 -21 -113 0
10 21 123 0
-10 -21 -123 0
11 21 133 0
-11 -21 -133 0
12 21 143 0
-12 -21 -143 0
13 21 153 0
-13 -21 -153 0
1 22 34 0
-1 -22 -34 0
2 22 44 0
-2 -22 -44 0
3 22 54 0
-3 -22 -54 0
4 22 64 0
-4 -22 -64 0
5 22 74 0
-5 -22 -74 0
6 22 84 0
-6 -22 -84 0
7 22 94 0
-7 -22 -94 0
8 22 104 0
-8 -22 -104 0
9 22 114 0
-9 -22 -114 0
10 22 124 0
-10 -22 -124 0
11 22 134 0
-11 -22 -134 0
12 22 144 0
-12 -22 -144 0
13 22 154 0
-13 -22 -154 0
1 23 35 0
-1 -23 -35 0
2 23 45 0
-2 -23 -45 0
3 23 55 0
-3 -23 -55 0
4 23 65 0
-4 -23 -65 0
5 23 75 0
-5 -23 -75 0
6 23 85 0
-6 -23 -85 0
7 23 95 0
-7 -23 -95 0
8 23 105 0
-8 -23 -105 0
9 23 115 0
-9 -23 -115 0
10 23 125 0
-10 -23 -125 0
11 23 135 0
-11 -23 -135 0
12 23 145 0
-12 -23 -145 0
13 23 155 0
-13 -23 -155 0
1 24 36 0
-1 -24 -36 0
2 24 46 0
-2 -24 -46 0
3 24 56 0
-3 -24 -56 0
4 24 66 0
-4 -24 -66 0
5 24 76 0
-5 -24 -76 0
6 24 86 0
-6 -24 -86 0
7 24 96 0
-7 -24 -96 0
8 24 106 0
-8 -24 -106 0
9 24 116 0
-9 -24 -116 0
10 24 126 0
-10 -24 -126 0
11 24 136 0
-11 -24 -136 0
12 24 146 0
-12 -24 -146 0
13 24 156 0
-13 -24 -156 0
1 25 37 0
-1 -25 -37 0
2 25 47 0
-2 -25 -47 0
3 25 57 0
-3 -25 -57 0
4 25 67 0
-4 -25 -67 0
5 25 77 0
-5 -25 -77 0
6 25 87 0
-6 -25 -87 0
7 25 97 0
-7 -25 -97 0
8 25 107 0
-8 -25 -107 0
9 25 117 0
-9 -25 -117 0
10 25 127 0
-10 -25 -127 0
11 25 137 0
-11 -25 -137 0
12 25 147 0
-12 -25 -147 0
13 25 157 0
-13 -25 -157 0
1 26 38 0
-1 -26 -38 0
2 26 48 0
-2 -26 -48 0
3 26 58 0
-3 -26 -58 0
4 26 68 0
-4 -26 -68 0
5 26 78 0
-5 -26 -78 0
6 26 88 0
-6 -26 -88 0
7 26 98 0
-7 -26 -98 0
8 26 108 0
-8 -26 -108 0
9 26 118 0
-9 -26 -118 0
10 26 128 0
-10 -26 -128 0
11 26 138 0
-11 -26 -138 0
12 26 148 0
-12 -26 -148 0
1 27 39 0
-1 -27 -39 0
2 27 49 0
-2 -27 -49 0
3 27 59 0
-3 -27 -59 0
4 27 69 0
-4 -27 -69 0
5 27 79 0
-5 -27 -79 0
6 27 89 0
-6 -27 -89 0
7 27 99 0
-7 -27 -99 0
8 27 109 0
-8 -27 -109 0
9 27 119 0
-9 -27 -119 0
10 27 129 0
-10 -27 -129 0
11 27 139 0
-11 -27 -139 0
12 27 149 0
-12 -27 -149 0
1 28 40 0
-1 -28 -40 0
2 28 50 0
-2 -28 -50 0
3 28 60 0
-3 -28 -60 0
4 28 70 0
-4 -28 -70 0
5 28 80 0
-5 -28 -80 0
6 28 90 0
-6 -28 -90 0
7 28 100 0
-7 -28 -100 0
8 28 110 0
-8 -28 -110 0
9 28 120 0
-9 -28 -120 0
10 28 130 0
-10 -28 -130 0
11 28 140 0
-11 -28 -140 0
12 28 150 0
-12 -28 -150 0
1 29 41 0
-1 -29 -41 0
2 29 51 0
-2 -29 -51 0
3 29 61 0
-3 -29 -61 0
4 29 71 0
-4 -29 -71 0
5 29 81 0
-5 -29 -81 0
6 29 91 0
-6 -29 -91 0
7 29 101 0
-7 -29 -101 0
8 29 111 0
-8 -29 -111 0
9 29 121 0
-9 -29 -121 0
10 29 131 0
-10 -29 -131 0
11 29 141 0
-11 -29 -141 0
12 29 151 0
-12 -29 -151 0
1 30 42 0
-1 -30 -42 0
2 30 52 0
-2 -30 -52 0
3 30 62 0
-3 -30 -62 0
4 30 72 0
-4 -30 -72 0
5 30 82 0
-5 -30 -82 0
6 30 92 0
-6 -30 -92 0
7 30 102 0
-7 -30 -102 0
8 30 112 0
-8 -30 -112 0
9 30 122 0
-9 -30 -122 0
10 30 132 0
-10 -30 -132 0
11 30 142 0
-11 -30 -142 0
12 30 152 0
-12 -30 -152 0
1 31 43 0
-1 -31 -43 0
2 31 53 0
-2 -31 -53 0
3 31 63 0
-3 -31 -63 0
4 31 73 0
-4 -31 -73 0
5 31 83 0
-5 -31 -83 0
6 31 93 0
-6 -31 -93 0
7 31 103 0
-7 -31 -103 0
8 31 113 0
-8 -31 -113 0
9 31 123 0
-9 -31 -123 0
10 31 133 0
-10 -31 -133 0
11 31 143 0
-11 -31 -143 0
12 31 153 0
-12 -31 -153 0
1 32 44 0
-1 -32 -44 0
2 32 54 0
-2 -32 -54 0
3 32 64 0
-3 -32 -64 0
4 32 74 0
-4 -32 -74 0
5 32 84 0
-5 -32 -84 0
6 32 94 0
-6 -32 -94 0
7 32 104 0
-7 -32 -104 0
8 32 114 0
-8 -32 -114 0
9 32 124 0
-9 -32 -124 0
10 32 134 0
-10 -32 -134 0
11 32 144 0
-11 -32 -144 0
12 32 154 0
-12 -32 -154 0
1 33 45 0
-1 -33 -45 0
2 33 55 0
-2 -33 -55 0
3 33 65 0
-3 -33 -65 0
4 33 75 0
-4 -33 -75 0
5 33 85 0
-5 -33 -85 0
6 33 95 0
-6 -33 -95 0
7 33 105 0
-7 -33 -105 0
8 33 115 0
-8 -33 -115 0
9 33 125 0
-9 -33 -125 0
10 33 135 0
-10 -33 -135 0
11 33 145 0
-11 -33 -145 0
12 33 155 0
-12 -33 -155 0
1 34 46 0
-1 -34 -46 0
2 34 56 0
-2 -34 -56 0
3 34 66 0
-3 -34 -66 0
4 34 76 0
-4 -34 -76 0
5 34 86 0
-5 -34 -86 0
6 34 96 0
-6 -34 -96 0
7 34 106 0
-7 -34 -106 0
8 34 116 0
-8 -34 -116 0
9 34 126 0
-9 -34 -126 0
10 34 136 0
-10 -34 -136 0
11 34 146 0
-11 -34 -146 0
12 34 156 0
-12 -34 -156 0
1 35 47 0
-1 -35 -47 0
2 35 57 0
-2 -35 -57 0
3 35 67 0
-3 -35 -67 0
4 35 77 0
-4 -35 -77 0
5 35 87 0
-5 -35 -87 0
6 35 97 0
-6 -35 -97 0
7 35 107 0
-7 -35 -107 0
8 35 117 0
-8 -35 -117 0
9 35 127 0
-9 -35 -127 0
10 35 137 0
-10 -35 -137 0
11 35 147 0
-11 -35 -147 0
12 35 157 0
-12 -35 -157 0
1 36 48 0
-1 -36 -48 0
2 36 58 0
-2 -36 -58 0
3 36 68 0
-3 -36 -68 0
4 36 78 0
-4 -36 -78 0
5 36 88 0
-5 -36 -88 0
6 36 98 0
-6 -36 -98 0
7 36 108 0
-7 -36 -108 0
8 36 118 0
-8 -36 -118 0
9 36 128 0
-9 -36 -128 0
10 36 138 0
-10 -36 -138 0
11 36 148 0
-11 -36 -148 0
1 37 49 0
-1 -37 -49 0
2 37 59 0
-2 -37 -59 0
3 37 69 0
-3 -37 -69 0
4 37 79 0
-4 -37 -79 0
5 37 89 0
-5 -37 -89 0
6 37 99 0
-6 -37 -99 0
7 37 109 0
-7 -37 -109 0
8 37 119 0
-8 -37 -119 0
9 37 129 0
-9 -37 -129 0
10 37 139 0
-10 -37 -139 0
11 37 149 0
-11 -37 -149 0
1 38 50 0
-1 -38 -50 0
2 38 60 0
-2 -38 -60 0
3 38 70 0
-3 -38 -70 0
4 38 80 0
-4 -38 -80 0
5 38 90 0
-5 -38 -90 0
6 38 100 0
-6 -38 -100 0
7 38 110 0
-7 -38 -110 0
8 38 120 0
-8 -38 -120 0
9 38 130 0
-9 -38 -130 0
10 38 140 0
-10 -38 -140 0
11 38 150 0
-11 -38 -150 0
1 39 51 0
-1 -39 -51 0
2 39 61 0
-2 -39 -61 0
3 39 71 0
-3 -39 -71 0
4 39 81 0
-4 -39 -81 0
5 39 91 0
-5 -39 -91 0
6 39 101 0
-6 -39 -101 0
7 39 111 0
-7 -39 -111 0
8 39 121 0
-8 -39 -121 0
9 39 131 0
-9 -39 -131 0
10 39 141 0
-10 -39 -141 0
11 39 151 0
-11 -39 -151 0
1 40 52 0
-1 -40 -52 0
2 40 62 0
-2 -40 -62 0
3 40 72 0
-3 -40 -72 0
4 40 82 0
-4 -40 -82 0
5 40 92 0
-5 -40 -92 0
6 40 102 0
-6 -40 -102 0
7 40 112 0
-7 -40 -112 0
8 40 122 0
-8 -40 -122 0
9 40 132 0
-9 -40 -132 0
10 40 142 0
-10 -40 -142 0
11 40 152 0
-11 -40 -152 0
1 41 53 0
-1 -41 -53 0
2 41 63 0
-2 -41 -63 0
3 41 73 0
-3 -41 -73 0
4 41 83 0
-4 -41 -83 0
5 41 93 0
-5 -41 -93 0
6 41 103 0
-6 -41 -103 0
7 41 113 0
-7 -41 -113 0
8 41 123 0
-8 -41 -123 0
9 41 133 0
-9 -41 -133 0
10 41 143 0
-10 -41 -143 0
11 41 153 0
-11 -41 -153 0
1 42 54 0
-1 -42 -54 0
2 42 64 0
-2 -42 -64 0
3 42 74 0
-3 -42 -74 0
4 42 84 0
-4 -42 -84 0
5 42 94 0
-5 -42 -94 0
6 42 104 0
-6 -42 -104 0
7 42 114 0
-7 -42 -114 0
8 42 124 0
-8 -42 -124 0
9 42 134 0
-9 -42 -134 0
10 42 144 0
-10 -42 -144 0
11 42 154 0
-11 -42 -154 0
1 43 55 0
-1 -43 -55 0
2 43 65 0
-2 -43 -65 0
3 43 75 0
-3 -43 -75 0
4 43 85 0
-4 -43 -85 0
5 43 95 0
-5 -43 -95 0
6 43 105 0
-6 -43 -105 0
7 43 115 0
-7 -43 -115 0
8 43 125 0
-8 -43 -125 0
9 43 135 0
-9 -43 -135 0
10 43 145 0
-10 -43 -145 0
11 43 155 0
-11 -43 -155 0
1 44 56 0
-1 -44 -56 0
2 44 66 0
-2 -44 -66 0
3 44 76 0
-3 -44 -76 0
4 44 86 0
-4 -44 -86 0
5 44 96 0
-5 -44 -96 0
6 44 106 0
-6 -44 -106 0
7 44 116 0
-7 -44 -116 0
8 44 126 0
-8 -44 -126 0
9 44 136 0
-9 -44 -136 0
10 44 146 0
-10 -44 -146 0
11 44 156 0
-11 -44 -156 0
1 45 57 0
-1 -45 -57 0
2 45 67 0
-2 -45 -67 0
3 45 77 0
-3 -45 -77 0
4 45 87 0
-4 -45 -87 0
5 45 97 0
-5 -45 -97 0
6 45 107 0
-6 -45 -107 0
7 45 117 0
-7 -45 -117 0
8 45 127 0
-8 -45 -127 0
9 45 137 0
-9 -45 -137 0
10 45 147 0
-10 -45 -147 0
11 45 157 0
-11 -45 -157 0
1 46 58 0
-1 -46 -58 0
2 46 68 0
-2 -46 -68 0
3 46 78 0
-3 -46 -78 0
4 46 88 0
-4 -46 -88 0
5 46 98 0
-5 -46 -98 0
6 46 108 0
-6 -46 -108 0
7 46 118 0
-7 -46 -118 0
8 46 128 0
-8 -46 -128 0
9 46 138 0
-9 -46 -138 0
10 46 148 0
-10 -46 -148 0
1 47 59 0
-1 -47 -59 0
2 47 69 0
-2 -47 -69 0
3 47 79 0
-3 -47 -79 0
4 47 89 0
-4 -47 -89 0
5 47 99 0
-5 -47 -99 0
6 47 109 0
-6 -47 -109 0
7 47 119 0
-7 -47 -119 0
8 47 129 0
-8 -47 -129 0
9 47 139 0
-9 -47 -139 0
10 47 149 0
-10 -47 -149 0
1 48 60 0
-1 -48 -60 0
2 48 70 0
-2 -48 -70 0
3 48 80 0
-3 -48 -80 0
4 48 90 0
-4 -48 -90 0
5 48 100 0
-5 -48 -100 0
6 48 110 0
-6 -48 -110 0
7 48 120 0
-7 -48 -120 0
8 48 130 0
-8 -48 -130 0
9 48 140 0
-9 -48 -140 0
10 48 150 0
-10 -48 -150 0
1 49 61 0
-1 -49 -61 0
2 49 71 0
-2 -49 -71 0
3 49 81 0
-3 -49 -81 0
4 49 91 0
-4 -49 -91 0
5 49 101 0
-5 -49 -101 0
6 49 111 0
-6 -49 -111 0
7 49 121 0
-7 -49 -121 0
8 49 131 0
-8 -49 -131 0
9 49 141 0
-9 -49 -141 0
10 49 151 0
-10 -49 -151 0
1 50 62 0
-1 -50 -62 0
2 50 72 0
-2 -50 -72 0
3 50 82 0
-3 -50 -82 0
4 50 92 0
-4 -50 -92 0
5 50 102 0
-5 -50 -102 0
6 50 112 0
-6 -50 -112 0
7 50 122 0
-7 -50 -122 0
8 50 132 0
-8 -50 -132 0
9 50 142 0
-9 -50 -142 0
10 50 152 0
-10 -50 -152 0
1 51 63 0
-1 -51 -63 0
2 51 73 0
-2 -51 -73 0
3 51 83 0
-3 -51 -83 0
4 51 93 0
-4 -51 -93 0
5 51 103 0
-5 -51 -103 0
6 51 113 0
-6 -51 -113 0
7 51 123 0
-7 -51 -123 0
8 51 133 0
-8 -51 -133 0
9 51 143 0
-9 -51 -143 0
10 51 153 0
-10 -51 -153 0
1 52 64 0
-1 -52 -64 0
2 52 74 0
-2 -52 -74 0
3 52 84 0
-3 -52 -84 0
4 52 94 0
-4 -52 -94 0
5 52 104 0
-5 -52 -104 0
6 52 114 0
-6 -52 -114 0
7 52 124 0
-7 -52 -124 0
8 52 134 0
-8 -52 -134 0
9 52 144 0
-9 -52 -144 0
10 52 154 0
-10 -52 -154 0
1 53 65 0
-1 -53 -65 0
2 53 75 0
-2 -53 -75 0
3 53 85 0
-3 -53 -85 0
4 53 95 0
-4 -53 -95 0
5 53 105 0
-5 -53 -105 0
6 53 115 0
-6 -53 -115 0
7 53 125 0
-7 -53 -125 0
8 53 135 0
-8 -53 -135 0
9 53 145 0
-9 -53 -145 0
10 53 155 0
-10 -53 -155 0
1 54 66 0
-1 -54 -66 0
2 54 76 0
-2 -54 -76 0
3 54 86 0
-3 -54 -86 0
4 54 96 0
-4 -54 -96 0
5 54 106 0
-5 -54 -106 0
6 54 116 0
-6 -54 -116 0
7 54 126 0
-7 -54 -126 0
8 54 136 0
-8 -54 -136 0
9 54 146 0
-9 -54 -146 0
10 54 156 0
-10 -54 -156 0
1 55 67 0
-1 -55 -67 0
2 55 77 0
-2 -55 -77 0
3 55 87 0
-3 -55 -87 0
4 55 97 0
-4 -55 -97 0
5 55 107 0
-5 -55 -107 0
6 55 117 0
-6 -55 -117 0
7 55 127 0
-7 -55 -127 0
8 55 137 0
-8 -55 -137 0
9 55 147 0
-9 -55 -147 0
10 55 157 0
-10 -55 -157 0
1 56 68 0
-1 -56 -68 0
2 56 78 0
-2 -56 -78 0
3 56 88 0
-3 -56 -88 0
4 56 98 0
-4 -56 -98 0
5 56 108 0
-5 -56 -108 0
6 56 118 0
-6 -56 -118 0
7 56 128 0
-7 -56 -128 0
8 56 138 0
-8 -56 -138 0
9 56 148 0
-9 -56 -148 0
1 57 69 0
-1 -57 -69 0
2 57 79 0
-2 -57 -79 0
3 57 89 0
-3 -57 -89 0
4 57 99 0
-4 -57 -99 0
5 57 109 0
-5 -57 -109 0
6 57 119 0
-6 -57 -119 0
7 57 129 0
-7 -57 -129 0
8 57 139 0
-8 -57 -139 0
9 57 149 0
-9 -57 -149 0
1 58 70 0
-1 -58 -70 0
2 58 80 0
-2 -58 -80 0
3 58 90 0
-3 -58 -90 0
4 58 100 0
-4 -58 -100 0
5 58 110 0
-5 -58 -110 0
6 58 120 0
-6 -58 -120 0
7 58 130 0
-7 -58 -130 0
8 58 140 0
-8 -58 -140 0
9 58 150 0
-9 -58 -150 0
1 59 71 0
-1 -59 -71 0
2 59 81 0
-2 -59 -81 0
3 59 91 0
-3 -59 -91 0
4 59 101 0
-4 -59 -101 0
5 59 111 0
-5 -59 -111 0
6 59 121 0
-6 -59 -121 0
7 59 131 0
-7 -59 -131 0
8 59 141 0
-8 -59 -141 0
9 59 151 0
-9 -59 -151 0
1 60 72 0
-1 -60 -72 0
2 60 82 0
-2 -60 -82 0
3 60 92 0
-3 -60 -92 0
4 60 102 0
-4 -60 -102 0
5 60 112 0
-5 -60 -112 0
6 60 122 0
-6 -60 -122 0
7 60 132 0
-7 -60 -132 0
8 60 142 0
-8 -60 -142 0
9 60 152 0
-9 -60 -152 0
1 61 73 0
-1 -61 -73 0
2 61 83 0
-2 -61 -83 0
3 61 93 0
-3 -61 -93 0
4 61 103 0
-4 -61 -103 0
5 61 113 0
-5 -61 -113 0
6 61 123 0
-6 -61 -123 0
7 61 133 0
-7 -61 -133 0
8 61 143 0
-8 -61 -143 0
9 61 153 0
-9 -61 -153 0
1 62 74 0
-1 -62 -74 0
2 62 84 0
-2 -62 -84 0
3 62 94 0
-3 -62 -94 0
4 62 104 0
-4 -62 -104 0
5 62 114 0
-5 -62 -114 0
6 62 124 0
-6 -62 -124 0
7 62 134 0
-7 -62 -134 0
8 62 144 0
-8 -62 -144 0
9 62 154 0
-9 -62 -154 0
1 63 75 0
-1 -63 -75 0
2 63 85 0
-2 -63 -85 0
3 63 95 0
-3 -63 -95 0
4 63 105 0
-4 -63 -105 0
5 63 115 0
-5 -63 -115 0
6 63 125 0
-6 -63 -125 0
7 63 135 0
-7 -63 -135 0
8 63 145 0
-8 -63 -145 0
9 63 155 0
-9 -63 -155 0
1 64 76 0
-1 -64 -76 0
2 64 86 0
-2 -64 -86 0
3 64 96 0
-3 -64 -96 0
4 64 106 0
-4 -64 -106 0
5 64 116 0
-5 -64 -116 0
6 64 126 0
-6 -64 -126 0
7 64 136 0
-7 -64 -136 0
8 64 146 0
-8 -64 -146 0
9 64 156 0
-9 -64 -156 0
1 65 77 0
-1 -65 -77 0
2 65 87 0
-2 -65 -87 0
3 65 97 0
-3 -65 -97 0
4 65 107 0
-4 -65 -107 0
5 65 117 0
-5 -65 -117 0
6 65 127 0
-6 -65 -127 0
7 65 137 0
-7 -65 -137 0
8 65 147 0
-8 -65 -147 0
9 65 157 0
-9 -65 -157 0
1 66 78 0
-1 -66 -78 0
2 66 88 0
-2 -66 -88 0
3 66 98 0
-3 -66 -98 0
4 66 108 0
-4 -66 -108 0
5 66 118 0
-5 -66 -118 0
6 66 128 0
-6 -66 -128 0
7 66 138 0
-7 -66 -138 0
8 66 148 0
-8 -66 -148 0
1 67 79 0
-1 -67 -79 0
2 67 89 0
-2 -67 -89 0
3 67 99 0
-3 -67 -99 0
4 67 109 0
-4 -67 -109 0
5 67 119 0
-5 -67 -119 0
6 67 129 0
-6 -67 -129 0
7 67 139 0
-7 -67 -139 0
8 67 149 0
-8 -67 -149 0
1 68 80 0
-1 -68 -80 0
2 68 90 0
-2 -68 -90 0
3 68 100 0
-3 -68 -100 0
4 68 110 0
-4 -68 -110 0
5 68 120 0
-5 -68 -120 0
6 68 130 0
-6 -68 -130 0
7 68 140 0
-7 -68 -140 0
8 68 150 0
-8 -68 -150 0
1 69 81 0
-1 -69 -81 0
2 69 91 0
-2 -69 -91 0
3 69 101 0
-3 -69 -101 0
4 69 111 0
-4 -69 -111 0
5 69 121 0
-5 -69 -121 0
6 69 131 0
-6 -69 -131 0
7 69 141 0
-7 -69 -141 0
8 69 151 0
-8 -69 -151 0
1 70 82 0
-1 -70 -82 0
2 70 92 0
-2 -70 -92 0
3 70 102 0
-3 -70 -102 0
4 70 112 0
-4 -70 -112 0
5 70 122 0
-5 -70 -122 0
6 70 132 0
-6 -70 -132 0
7 70 142 0
-7 -70 -142 0
8 70 152 0
-8 -70 -152 0
1 71 83 0
-1 -71 -83 0
2 71 93 0
-2 -71 -93 0
3 71 103 0
-3 -71 -103 0
4 71 113 0
-4 -71 -113 0
5 71 123 0
-5 -71 -123 0
6 71 133 0
-6 -71 -133 0
7 71 143 0
-7 -71 -143 0
8 71 153 0
-8 -71 -153 0
1 72 84 0
-1 -72 -84 0
2 72 94 0
-2 -72 -94 0
3 72 104 0
-3 -72 -104 0
4 72 114 0
-4 -72 -114 0
5 72 124 0
-5 -72 -124 0
6 72 134 0
-6 -72 -134 0
7 72 144 0
-7 -72 -144 0
8 72 154 0
-8 -72 -154 0
1 73 85 0
-1 -73 -85 0
2 73 95 0
-2 -73 -95 0
3 73 105 0
-3 -73 -105 0
4 73 115 0
-4 -73 -115 0
5 73 125 0
-5 -73 -125 0
6 73 135 0
-6 -73 -135 0
7 73 145 0
-7 -73 -145 0
8 73 155 0
-8 -73 -155 0
1 74 86 0
-1 -74 -86 0
2 74 96 0
-2 -74 -96 0
3 74 106 0
-3 -74 -106 0
4 74 116 0
-4 -74 -116 0
5 74 126 0
-5 -74 -126 0
6 74 136 0
-6 -74 -136 0
7 74 146 0
-7 -74 -146 0
8 74 156 0
-8 -74 -156 0
1 75 87 0
-1 -75 -87 0
2 75 97 0
-2 -75 -97 0
3 75 107 0
-3 -75 -107 0
4 75 117 0
-4 -75 -117 0
5 75 127 0
-5 -75 -127 0
6 75 137 0
-6 -75 -137 0
7 75 147 0
-7 -75 -147 0
8 75 157 0
-8 -75 -157 0
1 76 88 0
-1 -76 -88 0
2 76 98 0
-2 -76 -98 0
3 76 108 0
-3 -76 -108 0
4 76 118 0
-4 -76 -118 0
5 76 128 0
-5 -76 -128 0
6 76 138 0
-6 -76 -138 0
7 76 148 0
-7 -76 -148 0
1 77 89 0
-1 -77 -89 0
2 77 99 0
-2 -77 -99 0
3 77 109 0
-3 -77 -109 0
4 77 119 0
-4 -77 -119 0
5 77 129 0
-5 -77 -129 0
6 77 139 0
-6 -77 -139 0
7 77 149 0
-7 -77 -149 0
1 78 90 0
-1 -78 -90 0
2 78 100 0
-2 -78 -100 0
3 78 110 0
-3 -78 -110 0
4 78 120 0
-4 -78 -120 0
5 78 130 0
-5 -78 -130 0
6 78 140 0
-6 -78 -140 0
7 78 150 0
-7 -78 -150 0
1 79 91 0
-1 -79 -91 0
2 79 101 0
-2 -79 -101 0
3 79 111 0
-3 -79 -111 0
4 79 121 0
-4 -79 -121 0
5 79 131 0
-5 -79 -131 0
6 79 141 0
-6 -79 -141 0
7 79 151 0
-7 -79 -151 0
1 80 92 0
-1 -80 -92 0
2 80 102 0
-2 -80 -102 0
3 80 112 0
-3 -80 -112 0
4 80 122 0
-4 -80 -122 0
5 80 132 0
-5 -80 -132 0
6 80 142 0
-6 -80 -142 0
7 80 152 0
-7 -80 -152 0
1 81 93 0
-1 -81 -93 0
2 81 103 0
-2 -81 -103 0
3 81 113 0
-3 -81 -113 0
4 81 123 0
-4 -81 -123 0
5 81 133 0
-5 -81 -133 0
6 81 143 0
-6 -81 -143 0
7 81 153 0
-7 -81 -153 0
1 82 94 0
-1 -82 -94 0
2 82 104 0
-2 -82 -104 0
3 82 114 0
-3 -82 -114 0
4 82 124 0
-4 -82 -124 0
5 82 134 0
-5 -82 -134 0
6 82 144 0
-6 -82 -144 0
7 82 154 0
-7 -82 -154 0
1 83 95 0
-1 -83 -95 0
2 83 105 0
-2 -83 -105 0
3 83 115 0
-3 -83 -115 0
4 83 125 0
-4 -83 -125 0
5 83 135 0
-5 -83 -135 0
6 83 145 0
-6 -83 -145 0
7 83 155 0
-7 -83 -155 0
1 84 96 0
-1 -84 -96 0
2 84 106 0
-2 -84 -106 0
3 84 116 0
-3 -84 -116 0
4 84 126 0
-4 -84 -126 0
5 84 136 0
-5 -84 -136 0
6 84 146 0
-6 -84 -146 0
7 84 156 0
-7 -84 -156 0
1 85 97 0
-1 -85 -97 0
2 85 107 0
-2 -85 -107 0
3 85 117 0
-3 -85 -117 0
4 85 127 0
-4 -85 -127 0
5 85 137 0
-5 -85 -137 0
6 85 147 0
-6 -85 -147 0
7 85 157 0
-7 -85 -157 0
1 86 98 0
-1 -86 -98 0
2 86 108 0
-2 -86 -108 0
3 86 118 0
-3 -86 -118 0
4 86 128 0
-4 -86 -128 0
5 86 138 0
-5 -86 -138 0
6 86 148 0
-6 -86 -148 0
1 87 99 0
-1 -87 -99 0
2 87 109 0
-2 -87 -109 0
3 87 119 0
-3 -87 -119 0
4 87 129 0
-4 -87 -129 0
5 87 139 0
-5 -87 -139 0
6 87 149 0
-6 -87 -149 0
1 88 100 0
-1 -88 -100 0
2 88 110 0
-2 -88 -110 0
3 88 120 0
-3 -88 -120 0
4 88 130 0
-4 -88 -130 0
5 88 140 0
-5 -88 -140 0
6 88 150 0
-6 -88 -150 0
1 89 101 0
-1 -89 -101 0
2 89 111 0
-2 -89 -111 0
3 89 121 0
-3 -89 -121 0
4 89 131 0
-4 -89 -131 0
5 89 141 0
-5 -89 -141 0
6 89 151 0
-6 -89 -151 0
1 90 102 0
-1 -90 -102 0
2 90 112 0
-2 -90 -112 0
3 90 122 0
-3 -90 -122 0
4 90 132 0
-4 -90 -132 0
5 90 142 0
-5 -90 -142 0
6 90 152 0
-6 -90 -152 0
1 91 103 0
-1 -91 -103 0
2 91 113 0
-2 -91 -113 0
3 91 123 0
-3 -91 -123 0
4 91 133 0
-4 -91 -133 0
5 91 143 0
-5 -91 -143 0
6 91 153 0
-6 -91 -153 0
1 92 104 0
-1 -92 -104 0
2 92 114 0
-2 -92 -114 0
3 92 124 0
-3 -92 -124 0
4 92 134 0
-4 -92 -134 0
5 92 144 0
-5 -92 -144 0
6 92 154 0
-6 -92 -154 0
1 93 105 0
-1 -93 -105 0
2 93 115 0
-2 -93 -115 0
3 93 125 0
-3 -93 -125 0
4 93 135 0
-4 -93 -135 0
5 93 145 0
-5 -93 -145 0
6 93 155 0
-6 -93 -155 0
1 94 106 0
-1 -94 -106 0
2 94 116 0
-2 -94 -116 0
3 94 126 0
-3 -94 -126 0
4 94 136 0
-4 -94 -136 0
5 94 146 0
-5 -94 -146 0
6 94 156 0
-6 -94 -156 0
1 95 107 0
-1 -95 -107 0
2 95 117 0
-2 -95 -117 0
3 95 127 0
-3 -95 -127 0
4 95 137 0
-4 -95 -137 0
5 95 147 0
-5 -95 -147 0
6 95 157 0
-6 -95 -157 0
1 96 108 0
-1 -96 -108 0
2 96 118 0
-2 -96 -118 0
3 96 128 0
-3 -96 -128 0
4 96 138 0
-4 -96 -138 0
5 96 148 0
-5 -96 -148 0
1 97 109 0
-1 -97 -109 0
2 97 119 0
-2 -97 -119 0
3 97 129 0
-3 -97 -129 0
4 97 139 0
-4 -97 -139 0
5 97 149 0
-5 -97 -149 0
1 98 110 0
-1 -98 -110 0
2 98 120 0
-2 -98 -120 0
3 98 130 0
-3 -98 -130 0
4 98 140 0
-4 -98 -140 0
5 98 150 0
-5 -98 -150 0
1 99 111 0
-1 -99 -111 0
2 99 121 0
-2 -99 -121 0
3 99 131 0
-3 -99 -131 0
4 99 141 0
-4 -99 -141 0
5 99 151 0
-5 -99 -151 0
1 100 112 0
-1 -100 -112 0
2 100 122 0
-2 -100 -122 0
3 100 132 0
-3 -100 -132 0
4 100 142 0
-4 -100 -142 0
5 100 152 0
-5 -100 -152 0
1 101 113 0
-1 -101 -113 0
2 101 123 0
-2 -101 -123 0
3 101 133 0
-3 -101 -133 0
4 101 143 0
-4 -101 -143 0
5 101 153 0
-5 -101 -153 0
1 102 114 0
-1 -102 -114 0
2 102 124 0
-2 -102 -124 0
3 102 134 0
-3 -102 -134 0
4 102 144 0
-4 -102 -144 0
5 102 154 0
-5 -102 -154 0
1 103 115 0
-1 -103 -115 0
2 103 125 0
-2 -103 -125 0
3 103 135 0
-3 -103 -135 0
4 103 145 0
-4 -103 -145 0
5 103 155 0
-5 -103 -155 0
1 104 116 0
-1 -104 -116 0
2 104 126 0
-2 -104 -126 0
3 104 136 0
-3 -104 -136 0
4 104 146 0
-4 -104 -146 0
5 104 156 0
-5 -104 -156 0
1 105 117 0
-1 -105 -117 0
2 105 127 0
-2 -105 -127 0
3 105 137 0
-3 -105 -137 0
4 105 147 0
-4 -105 -147 0
5 105 157 0
-5 -105 -157 0
1 106 118 0
-1 -106 -118 0
2 106 128 0
-2 -106 -128 0
3 106 138 0
-3 -106 -138 0
4 106 148 0
-4 -106 -148 0
1 107 119 0
-1 -107 -119 0
2 107 129 0
-2 -107 -129 0
3 107 139 0
-3 -107 -139 0
4 107 149 0
-4 -107 -149 0
1 108 120 0
-1 -108 -120 0
2 108 130 0
-2 -108 -130 0
3 108 140 0
-3 -108 -140 0
4 108 150 0
-4 -108 -150 0
1 109 121 0
-1 -109 -121 0
2 109 131 0
-2 -109 -131 0
3 109 141 0
-3 -109 -141 0
4 109 151 0
-4 -109 -151 0
1 110 122 0
-1 -110 -122 0
2 110 132 0
-2 -110 -132 0
3 110 142 0
-3 -110 -142 0
4 110 152 0
-4 -110 -152 0
1 111 123 0
-1 -111 -123 0
2 111 133 0
-2 -111 -133 0
3 111 143 0
-3 -111 -143 0
4 111 153 0
-4 -111 -153 0
1 112 124 0
-1 -112 -124 0
2 112 134 0
-2 -112 -134 0
3 112 144 0
-3 -112 -144 0
4 112 154 0
-4 -112 -154 0
1 113 125 0
-1 -113 -125 0
2 113 135 0
-2 -113 -135 0
3 113 145 0
-3 -113 -145 0
4 113 155 0
-4 -113 -155 0
1 114 126 0
-1 -114 -126 0
2 114 136 0
-2 -114 -136 0
3 114 146 0
-3 -114 -146 0
4 114 156 0
-4 -114 -156 0
1 115 127 0
-1 -115 -127 0
2 115 137 0
-2 -115 -137 0
3 115 147 0
-3 -115 -147 0
4 115 157 0
-4 -115 -157 0
1 116 128 0
-1 -116 -128 0
2 116 138 0
-2 -116 -138 0
3 116 148 0
-3 -116 -148 0
1 117 129 0
-1 -117 -129 0
2 117 139 0
-2 -117 -139 0
3 117 149 0
-3 -117 -149 0
1 118 130 0
-1 -118 -130 0
2 118 140 0
-2 -118 -140 0
3 118 150 0
-3 -118 -150 0
1 119 131 0
-1 -119 -131 0
2 119 141 0
-2 -119 -141 0
3 119 151 0
-3 -119 -151 0
1 120 132 0
-1 -120 -132 0
2 120 142 0
-2 -120 -142 0
3 120 152 0
-3 -120 -152 0
1 121 133 0
-1 -121 -133 0
2 121 143 0
-2 -121 -143 0
3 121 153 0
-3 -121 -153 0
1 122 134 0
-1 -122 -134 0
2 122 144 0
-2 -122 -144 0
3 122 154 0
-3 -122 -154 0
1 123 135 0
-1 -123 -135 0
2 123 145 0
-2 -123 -145 0
3 123 155 0
-3 -123 -155 0
1 124 136 0
-1 -124 -136 0
2 124 146 0
-2 -124 -146 0
3 124 156 0
-3 -124 -156 0
1 125 137 0
-1 -125 -137 0
2 125 147 0
-2 -125 -147 0
3 125 157 0
-3 -125 -157 0
1 126 138 0
-1 -126 -138 0
2 126 148 0
-2 -126 -148 0
1 127 139 0
-1 -127 -139 0
2 127 149 0
-2 -127 -149 0
1 128 140 0
-1 -128 -140 0
2 128 150 0
-2 -128 -150 0
1 129 141 0
-1 -129 -141 0
2 129 151 0
-2 -129 -151 0
1 130 142 0
-1 -130 -142 0
2 130 152 0
-2 -130 -152 0
1 131 143 0
-1 -131 -143 0
2 131 153 0
-2 -131 -153 0
1 132 144 0
-1 -132 -144 0
2 132 154 0
-2 -132 -154 0
1 133 145 0
-1 -133 -145 0
2 133 155 0
-2 -133 -155 0
1 134 146 0
-1 -134 -146 0
2 134 156 0
-2 -134 -156 0
1 135 147 0
-1 -135 -147 0
2 135 157 0
-2 -135 -157 0
1 136 148 0
-1 -136 -148 0
1 137 149 0
-1 -137 -149 0
1 138 150 0
-1 -138 -150 0
1 139 151 0
-1 -139 -151 0
1 140 152 0
-1 -140 -152 0
1 141 153 0
-1 -141 -153 0
1 142 154 0
-1 -142 -154 0
1 143 155 0
-1 -143 -155 0
1 144 156 0
-1 -144 -156 0
1 145 157 0
-1 -145 -157 0
