certificates/rado_a10_c-2_N157.drat
-145 -157 0
14 -157 0
-157 0
145 0
-13 0
1 0
25 0
-133 0
-37 0
-14 0
156 0
15 0
155 0
146 0
-144 0
-153 0
-4 0
-27 0
-3 0
-143 0
-134 0
12 0
112 0
2 0
11 0
21 0
121 0
45 0
36 0
46 0
136 0
55 0
56 0
79 0
91 0
92 0
101 0
102 0
111 0
115 0
59 0
69 0
35 0
135 0
5 0
125 0
-123 0
-124 0
-127 0
-24 0
-34 0
-64 0
-137 0
-23 0
-147 0
-33 0
-10 0
-100 0
-90 0
-60 0
-47 0
-154 0
-113 0
-114 0
-117 0
-9 0
-63 0
-43 0
-44 0
-73 0
-109 0
-99 0
0
